c b=7,c=2025
p cnf 25 415
1 2 3 4 7 -14 0
1 2 3 4 5 7 -17 0
2 3 4 5 6 7 -19 0
1 3 4 5 6 7 -20 0
1 2 4 5 6 7 -21 0
1 2 3 5 6 7 -22 0
1 2 3 4 6 7 -23 0
1 2 3 4 5 7 -24 0
1 2 3 4 -7 14 0
1 3 4 5 -7 17 0
1 2 3 6 -7 19 0
1 2 -7 20 0
1 2 3 -7 21 0
1 2 3 4 -7 22 0
1 2 3 4 5 -7 23 0
1 2 3 4 5 6 -7 24 0
1 2 3 6 -13 0
1 2 3 4 6 -16 0
1 2 3 4 5 6 -18 0
1 2 3 4 5 6 -25 0
1 -6 7 19 0
7 -25 0
1 -6 -7 -19 0
-6 -7 25 0
1 2 3 -6 13 0
2 3 4 -6 16 0
1 2 5 -6 18 0
1 2 -6 20 0
1 2 3 -6 21 0
1 2 3 4 -6 22 0
1 2 3 4 5 -6 23 0
1 2 3 4 5 -6 -24 0
1 2 5 -12 0
1 2 3 4 5 -15 0
1 4 -5 7 17 0
-5 6 7 18 0
2 3 -5 -7 -17 0
2 3 6 -7 -18 0
-5 -7 25 0
1 2 3 -5 6 19 0
-5 6 -24 0
-5 -6 7 -18 0
1 -5 7 19 0
-6 -7 18 0
-5 -6 24 0
1 2 -5 12 0
1 2 3 4 -5 15 0
1 2 -5 20 0
1 2 3 -5 21 0
1 2 3 4 -5 22 0
1 2 3 4 -5 -23 0
1 4 -11 0
1 2 3 -4 7 14 0
1 2 3 5 7 -15 0
-4 5 6 7 17 0
1 2 -4 5 7 18 0
1 2 3 -4 -7 -14 0
1 2 3 -4 5 -7 15 0
2 3 -4 6 -7 -17 0
-4 -7 25 0
3 -4 5 6 16 0
1 2 3 -4 6 19 0
-4 6 -24 0
1 2 5 -6 7 -17 0
1 -4 7 19 0
5 -6 -7 17 0
1 2 -4 5 -6 -16 0
-4 -6 24 0
-4 5 -23 0
1 2 3 -5 7 15 0
3 -4 6 7 16 0
-4 6 7 18 0
2 3 -4 -5 -7 -15 0
2 3 -5 6 -7 -16 0
2 3 -4 -5 6 -17 0
1 2 -4 -6 7 -16 0
-5 -6 7 17 0
1 3 -5 -6 -7 16 0
-4 -5 23 0
1 -4 11 0
1 2 -4 20 0
1 2 3 -4 21 0
1 2 3 -4 -22 0
3 -10 0
1 2 4 6 7 -14 0
1 -3 4 6 7 17 0
1 2 -3 5 7 18 0
1 2 4 6 -7 14 0
-3 4 6 -7 -17 0
4 6 -7 -18 0
-3 -7 25 0
1 2 -3 6 13 0
2 -3 4 5 6 15 0
-3 4 5 6 16 0
1 -3 4 6 19 0
-3 6 -24 0
1 2 -3 4 -6 7 14 0
2 -3 4 5 7 15 0
1 2 -3 5 -6 7 -16 0
1 -3 7 19 0
1 2 -3 4 -6 -7 -14 0
1 2 -3 5 -6 -7 -15 0
1 2 -3 4 5 -7 16 0
1 2 -3 -6 -13 0
-3 -6 24 0
-3 5 -23 0
-3 6 7 18 0
4 -5 -7 -17 0
1 -3 4 -5 6 -15 0
1 4 -5 6 -16 0
1 -3 4 -5 7 -15 0
1 2 -3 -5 -6 -7 15 0
4 -5 -6 16 0
-3 -5 23 0
-3 4 -22 0
1 2 -4 6 7 14 0
2 -3 5 6 7 15 0
1 2 -3 -4 5 7 -16 0
-3 5 6 7 17 0
1 2 -4 6 -7 -14 0
2 -3 -4 5 -7 -15 0
2 -3 -4 6 -7 16 0
-3 5 6 -7 -17 0
5 6 -7 -18 0
1 -3 5 6 19 0
1 2 -3 -4 -6 7 -14 0
1 2 -3 -4 -6 -7 14 0
1 2 -3 -4 5 -6 -15 0
1 2 -3 -4 -6 -16 0
1 -3 -5 6 7 -15 0
-4 -5 6 7 -17 0
1 -3 -4 -5 -7 15 0
-3 -4 -5 6 -7 17 0
1 -3 -4 -5 -7 -19 0
-3 -4 -5 6 16 0
-3 -4 -5 6 18 0
-5 -6 -7 -17 0
-3 -4 -5 -7 18 0
2 -3 -4 -5 -6 15 0
-3 -4 22 0
-3 10 0
1 2 -3 20 0
1 2 -3 -21 0
2 -9 0
1 -2 3 4 5 7 14 0
-2 3 4 5 7 15 0
-2 3 5 6 7 16 0
-2 3 5 7 18 0
1 -2 3 4 5 -7 -14 0
1 -2 3 5 -7 -15 0
1 3 4 6 -7 -16 0
-2 -7 25 0
1 3 5 6 -13 0
1 -2 3 4 5 6 17 0
1 -2 4 6 19 0
-2 6 -24 0
-2 3 5 -6 7 -16 0
3 5 -6 7 -17 0
1 -2 7 19 0
1 3 4 -6 -7 16 0
1 3 5 -6 13 0
3 5 -6 18 0
-2 -6 24 0
1 -2 5 12 0
-2 5 -23 0
1 -2 3 4 6 7 14 0
1 -2 4 -5 6 7 -15 0
-2 6 7 18 0
1 -2 3 4 6 -7 -14 0
3 4 -5 -7 15 0
1 -2 3 -5 6 13 0
1 -2 4 -5 -6 7 -14 0
1 -2 4 -5 -6 -7 14 0
1 -2 3 -5 -6 -13 0
1 3 4 -5 -6 15 0
1 -2 -5 -12 0
-2 -5 23 0
-2 4 -22 0
-2 3 -4 5 7 -14 0
-2 5 6 7 17 0
-2 3 -4 5 -7 14 0
1 -4 5 6 -7 -17 0
-2 3 -4 6 16 0
1 -2 5 6 19 0
3 -4 5 -6 -16 0
-2 3 -4 5 -15 0
-2 3 -4 6 7 -14 0
-2 3 -4 6 -7 14 0
-2 -4 -5 6 -7 17 0
1 -2 -4 -5 -7 -19 0
-2 3 -4 -5 6 15 0
-2 -4 -5 6 18 0
1 -2 -4 -5 -6 7 14 0
3 -4 -5 7 15 0
3 -4 -6 7 -16 0
1 -2 -4 -5 -6 -7 -14 0
1 -2 3 -4 -6 -7 -15 0
1 -2 3 -4 -5 -7 16 0
-2 -4 -5 -7 18 0
-2 -4 22 0
-2 3 -21 0
1 -2 4 5 6 7 14 0
1 -2 -3 4 6 7 -15 0
1 -2 4 6 7 17 0
-2 4 5 7 18 0
1 -2 4 5 6 -7 -14 0
-2 -3 4 5 -7 15 0
1 -3 5 6 13 0
1 -2 -3 4 -6 7 -14 0
4 5 -6 7 -17 0
1 -2 -3 4 -6 -7 14 0
1 -3 5 -6 -13 0
1 -2 -3 4 5 -6 15 0
-2 -3 4 5 -6 -16 0
4 5 -6 18 0
1 -2 -3 4 -5 7 -14 0
1 -2 -3 4 -5 -7 14 0
1 -2 -3 -5 6 -13 0
1 -2 -3 -5 -6 13 0
1 -2 -3 4 -5 -15 0
-2 -4 5 6 7 -14 0
-2 -3 -4 5 7 17 0
-2 -4 5 6 -7 14 0
-2 -3 -4 5 6 15 0
-2 -3 -4 5 6 -16 0
-2 -3 -4 -6 7 14 0
-2 -3 -4 5 7 15 0
-2 -3 -4 5 -6 7 16 0
-2 -3 -4 -6 7 -18 0
-2 -3 -4 -6 -7 -14 0
-2 -4 5 -6 -7 -15 0
-2 -3 -4 5 -7 -16 0
-2 -3 -4 5 -6 17 0
1 -2 -3 -4 -5 7 14 0
1 -2 -3 -5 7 -15 0
1 -2 -3 -4 -5 -7 -14 0
-2 -4 -5 6 16 0
-2 -3 -4 -6 7 17 0
-3 -4 -5 -6 -16 0
-2 -3 21 0
-2 9 0
1 -2 -20 0
1 -8 0
-1 2 3 4 6 7 14 0
-1 2 4 5 6 7 15 0
-1 2 3 4 5 7 16 0
-1 3 5 7 18 0
-1 2 3 4 6 -7 -14 0
2 3 4 5 -7 -15 0
2 3 4 6 -7 -16 0
-1 -7 25 0
-1 2 3 4 6 13 0
-1 2 3 4 5 6 17 0
-1 2 3 6 -19 0
-1 2 3 6 -20 0
-1 3 6 -21 0
-1 4 6 -22 0
-1 5 6 -23 0
-1 6 -24 0
-1 2 4 -6 7 -14 0
-1 7 -19 0
-1 2 7 -20 0
-1 3 7 -21 0
-1 4 7 -22 0
-1 5 7 -23 0
-1 -6 7 24 0
-1 2 4 -6 -7 14 0
2 3 4 5 -7 17 0
-1 -6 -7 19 0
2 -6 -7 20 0
2 3 -6 -7 21 0
2 3 4 -6 -7 22 0
2 3 4 5 -6 -7 23 0
-1 2 3 4 5 -7 -24 0
-1 2 3 4 -6 -13 0
2 3 4 5 -6 -15 0
2 4 5 -12 0
-1 2 4 -5 6 7 -15 0
2 4 -5 7 17 0
-1 6 7 18 0
2 4 -5 6 -16 0
-1 -5 6 23 0
-1 -5 7 23 0
2 3 4 -5 -6 -7 -23 0
2 3 4 -5 -6 15 0
2 4 -5 12 0
-1 4 11 0
-1 3 -4 5 6 7 -14 0
-1 5 6 7 17 0
-1 3 -4 5 6 -7 14 0
-1 2 3 5 6 13 0
-1 3 -4 5 6 -15 0
-1 -4 6 22 0
2 3 -4 -6 7 14 0
-1 3 -4 5 7 -15 0
-1 -4 7 22 0
2 3 -4 -6 -7 -14 0
2 3 -4 5 -6 -7 15 0
2 3 -4 -6 -7 -22 0
-1 2 3 5 -6 -13 0
-1 2 -4 5 12 0
2 3 -4 -5 7 14 0
2 3 -4 -5 -7 -14 0
-1 3 -4 -5 6 -13 0
2 3 -5 -6 -7 16 0
-1 3 -4 -5 -6 13 0
-1 2 -4 -5 -12 0
-1 -4 -11 0
-1 2 -3 4 7 -14 0
-1 2 4 6 7 17 0
-1 4 5 7 18 0
-1 2 -3 4 -7 14 0
-1 2 -3 4 6 -13 0
-1 4 6 -19 0
-1 2 4 6 -20 0
-1 -3 4 6 21 0
-1 -3 7 21 0
2 -3 -6 -7 -21 0
-1 2 -3 4 -6 13 0
-1 -3 4 5 -6 -16 0
-1 2 -3 4 5 15 0
-1 2 -3 4 -5 -15 0
-1 2 -3 -4 5 7 14 0
-1 2 -3 5 7 15 0
-1 -3 -4 5 6 7 -16 0
-1 -3 -4 5 7 17 0
-1 2 -3 -4 5 -7 -14 0
-1 2 -3 5 6 -13 0
-1 5 6 -19 0
-1 2 5 6 -20 0
-1 -3 5 6 21 0
-1 -3 -4 5 -6 7 16 0
-1 -3 -4 -6 7 -18 0
-1 -3 -4 -6 -7 -16 0
-1 2 -3 5 -6 13 0
-1 -3 -4 5 -6 17 0
2 -3 -4 6 7 14 0
2 -3 -5 6 7 -15 0
2 -3 -4 6 -7 -14 0
2 -3 -4 -5 -7 15 0
-1 -3 -4 -5 -7 19 0
2 -3 -4 -5 -7 20 0
2 -3 -4 -5 -7 -21 0
-1 -3 -4 -5 6 13 0
-1 2 -3 -5 -6 7 -14 0
-1 -3 -4 -6 7 17 0
-1 2 -3 -5 -6 -7 14 0
-1 -3 -4 -5 -6 -13 0
-1 -2 3 5 6 7 -14 0
-1 3 4 6 7 17 0
-1 -2 3 5 6 -7 14 0
-1 -2 4 6 -7 -17 0
-1 3 4 5 6 13 0
-1 -2 3 4 5 6 15 0
-1 -2 3 5 6 16 0
-1 -2 4 6 20 0
-1 -2 3 4 -6 7 14 0
-1 -2 7 20 0
-1 -2 3 4 -6 -7 -14 0
-2 3 5 -6 -7 -15 0
-1 -2 3 4 5 -7 16 0
-2 -6 -7 -20 0
-1 3 4 5 -6 -13 0
-2 4 5 12 0
-1 -2 3 4 -5 7 14 0
-1 -2 3 4 -5 7 -15 0
3 4 -5 7 17 0
-1 -2 3 4 -5 -7 -14 0
-1 -2 3 -5 -7 15 0
-1 -2 3 -5 6 -13 0
3 4 -5 6 -16 0
-1 -2 3 -5 -6 13 0
-2 4 -5 -12 0
-1 -2 3 -4 7 -14 0
-1 -2 3 -4 -7 14 0
-1 -2 5 6 -7 -17 0
-1 -2 3 -4 6 -13 0
-1 -2 5 6 20 0
-1 -2 3 -4 -6 13 0
-1 -2 3 -4 -6 -16 0
-1 -2 -4 5 -12 0
-1 -2 -4 -5 -7 19 0
-2 -4 -5 -7 -20 0
-1 -2 -4 -5 12 0
-1 -2 3 -4 -5 15 0
-1 -2 -3 4 5 7 14 0
-1 -2 -3 4 5 7 -15 0
-1 -2 -3 4 5 -7 -14 0
-1 -3 4 5 -7 15 0
-1 -3 4 5 6 -13 0
-1 -2 4 5 6 16 0
-1 -3 4 5 -6 13 0
-1 -2 -3 4 6 7 14 0
-1 -2 -3 4 -5 6 7 15 0
-1 -2 -3 4 -5 7 16 0
-1 -2 -3 4 6 -7 -14 0
-1 -3 4 -5 -7 -15 0
4 -5 6 -7 -16 0
-1 -2 -3 -5 6 13 0
-1 -2 -3 4 -5 6 -17 0
-1 -3 4 -5 -6 7 -14 0
-1 -3 4 -5 -6 -7 14 0
-1 -2 -3 -5 -6 -13 0
-1 -3 4 -5 -6 -15 0
-1 -2 -4 6 7 -14 0
-1 -2 -4 6 -7 14 0
-1 -2 -3 -4 6 13 0
-1 -3 -4 5 7 15 0
-1 -2 -3 -4 -6 -13 0
-1 -2 -3 -5 6 7 -17 0
-1 -2 -3 -4 -5 6 -15 0
-2 -3 -4 -5 7 -15 0
-1 -2 -4 -5 -6 -7 15 0
-1 -2 -4 -5 -6 -16 0
-1 8 0
